c 
c G(k,n,p) graph
c graph gen seed     : 2456
c number of vertices : 20
c max number of edges: 400
c number of classes  : 2
c edge density       : 0.800000
c edge probability   : 1.600000
c data structure     : dense
c
c           Graph Stats
c number of vertices  : 20
c nonisolated vertices: 20
c number of edges     : 99
c edge density        : 0.521053
c max degree          : 11
c avg degree          : 9.90
c min degree          : 9
p col 20 99
e 1 2
e 1 3
e 1 5
e 1 7
e 1 8
e 1 9
e 1 10
e 1 14
e 1 16
e 1 17
e 1 19
e 2 4
e 2 6
e 2 11
e 2 12
e 2 13
e 2 15
e 2 18
e 2 20
e 3 4
e 3 6
e 3 11
e 3 12
e 3 13
e 3 15
e 3 18
e 3 20
e 4 5
e 4 7
e 4 8
e 4 9
e 4 10
e 4 14
e 4 16
e 4 17
e 4 19
e 5 6
e 5 11
e 5 12
e 5 13
e 5 15
e 5 18
e 5 20
e 6 7
e 6 8
e 6 9
e 6 10
e 6 14
e 6 16
e 6 17
e 6 19
e 7 11
e 7 12
e 7 13
e 7 15
e 7 18
e 7 20
e 8 11
e 8 12
e 8 13
e 8 15
e 8 18
e 8 20
e 9 11
e 9 12
e 9 13
e 9 15
e 9 18
e 9 20
e 10 11
e 10 12
e 10 13
e 10 15
e 10 18
e 10 20
e 11 14
e 11 16
e 11 17
e 11 19
e 12 14
e 12 16
e 12 17
e 12 19
e 13 14
e 13 16
e 13 17
e 13 19
e 14 15
e 14 18
e 14 20
e 15 16
e 15 17
e 15 19
e 16 18
e 16 20
e 17 18
e 17 20
e 18 19
e 19 20
